\ BISECT U.16 branch-and-cut master LP
\ Connectivity is enforced by lazy/iterative cuts, not this base master.
Minimize
 obj: z_0_1 + z_1_2 + z_2_3 + z_3_4 + z_4_5 + z_5_6 + z_6_7
Subject To
 cover_0: x_0_0 + x_0_1 = 1
 cover_1: x_1_0 + x_1_1 = 1
 cover_2: x_2_0 + x_2_1 = 1
 cover_3: x_3_0 + x_3_1 = 1
 cover_4: x_4_0 + x_4_1 = 1
 cover_5: x_5_0 + x_5_1 = 1
 cover_6: x_6_0 + x_6_1 = 1
 cover_7: x_7_0 + x_7_1 = 1
 pop_lower_0: 100 x_0_0 + 100 x_1_0 + 100 x_2_0 + 100 x_3_0 + 100 x_4_0 + 100 x_5_0 + 100 x_6_0 + 100 x_7_0 >= 398
 pop_upper_0: 100 x_0_0 + 100 x_1_0 + 100 x_2_0 + 100 x_3_0 + 100 x_4_0 + 100 x_5_0 + 100 x_6_0 + 100 x_7_0 <= 402
 pop_lower_1: 100 x_0_1 + 100 x_1_1 + 100 x_2_1 + 100 x_3_1 + 100 x_4_1 + 100 x_5_1 + 100 x_6_1 + 100 x_7_1 >= 398
 pop_upper_1: 100 x_0_1 + 100 x_1_1 + 100 x_2_1 + 100 x_3_1 + 100 x_4_1 + 100 x_5_1 + 100 x_6_1 + 100 x_7_1 <= 402
 cut_pos_0_1_0: x_0_0 - x_1_0 - z_0_1 <= 0
 cut_neg_0_1_0: x_1_0 - x_0_0 - z_0_1 <= 0
 cut_pos_0_1_1: x_0_1 - x_1_1 - z_0_1 <= 0
 cut_neg_0_1_1: x_1_1 - x_0_1 - z_0_1 <= 0
 cut_pos_1_2_0: x_1_0 - x_2_0 - z_1_2 <= 0
 cut_neg_1_2_0: x_2_0 - x_1_0 - z_1_2 <= 0
 cut_pos_1_2_1: x_1_1 - x_2_1 - z_1_2 <= 0
 cut_neg_1_2_1: x_2_1 - x_1_1 - z_1_2 <= 0
 cut_pos_2_3_0: x_2_0 - x_3_0 - z_2_3 <= 0
 cut_neg_2_3_0: x_3_0 - x_2_0 - z_2_3 <= 0
 cut_pos_2_3_1: x_2_1 - x_3_1 - z_2_3 <= 0
 cut_neg_2_3_1: x_3_1 - x_2_1 - z_2_3 <= 0
 cut_pos_3_4_0: x_3_0 - x_4_0 - z_3_4 <= 0
 cut_neg_3_4_0: x_4_0 - x_3_0 - z_3_4 <= 0
 cut_pos_3_4_1: x_3_1 - x_4_1 - z_3_4 <= 0
 cut_neg_3_4_1: x_4_1 - x_3_1 - z_3_4 <= 0
 cut_pos_4_5_0: x_4_0 - x_5_0 - z_4_5 <= 0
 cut_neg_4_5_0: x_5_0 - x_4_0 - z_4_5 <= 0
 cut_pos_4_5_1: x_4_1 - x_5_1 - z_4_5 <= 0
 cut_neg_4_5_1: x_5_1 - x_4_1 - z_4_5 <= 0
 cut_pos_5_6_0: x_5_0 - x_6_0 - z_5_6 <= 0
 cut_neg_5_6_0: x_6_0 - x_5_0 - z_5_6 <= 0
 cut_pos_5_6_1: x_5_1 - x_6_1 - z_5_6 <= 0
 cut_neg_5_6_1: x_6_1 - x_5_1 - z_5_6 <= 0
 cut_pos_6_7_0: x_6_0 - x_7_0 - z_6_7 <= 0
 cut_neg_6_7_0: x_7_0 - x_6_0 - z_6_7 <= 0
 cut_pos_6_7_1: x_6_1 - x_7_1 - z_6_7 <= 0
 cut_neg_6_7_1: x_7_1 - x_6_1 - z_6_7 <= 0
Binary
 x_0_0
 x_0_1
 x_1_0
 x_1_1
 x_2_0
 x_2_1
 x_3_0
 x_3_1
 x_4_0
 x_4_1
 x_5_0
 x_5_1
 x_6_0
 x_6_1
 x_7_0
 x_7_1
 z_0_1
 z_1_2
 z_2_3
 z_3_4
 z_4_5
 z_5_6
 z_6_7
End
